p tw 69 76
1 2
2 13
3 4
4 5
4 54
5 6
6 7
6 8
7 65
8 9
9 10
10 11
11 12
12 14
13 24
14 15
15 16
16 17
17 57
18 19
19 20
20 21
21 22
22 23
23 25
24 35
25 26
26 27
26 34
27 28
28 29
28 37
29 30
30 31
30 54
31 32
32 33
32 37
33 40
34 36
35 46
35 18
36 65
37 38
38 39
39 20
40 41
41 42
41 44
42 43
43 44
44 45
45 47
46 57
47 48
48 49
49 50
50 51
51 52
52 53
53 20
54 55
55 56
56 58
57 67
58 59
59 60
60 61
61 62
62 63
63 64
64 65
65 66
67 68
68 69
69 3
